
  32    4
  10   10   10   10

   0   0   0   0   0   3 2 3 7 
   2   1   0   1   1   2 9 4 
   6   0   1   2   1   2 9 4 
   3   6   4   0   4   2 10 5 
   8   0   2   5   4   2 11 6 
   7   0   3   3   3   1 8 
   5   0   4   3   4   1 9 
   5   0   4   6   6   3 17 14 12 
   7   0   3   3   7   2 12 11 
   5   4   0   5   3   2 12 11 
   5   5   4   6   0   2 17 13 
   8   3   0   7   4   1 13 
   7   7   4   0   2   2 21 15 
   9   6   2   2   0   2 21 15 
   1   0   7   4   6   2 19 16 
   7   0   4   6   2   2 24 18 
   2   6   5   3   0   2 21 18 
   4   3   6   0   3   1 20 
  10   0   3   1   6   1 20 
   1   2   0   5   5   1 22 
   3   3   3   0   4   1 22 
   5   3   4   0   4   2 26 23 
   7   4   3   0   5   5 31 30 29 27 25 
   1   3   5   6   0   3 29 27 25 
   1   2   0   9   8   1 28 
   7   2   0   2   7   1 27 
   6   4   6   3   0   1 32
   4   0   6   5   3   1 32
   9   0   3   2   1   1 32
   6   6   0   3   3   1 32
   1   6   6   0   4   1 32
   0   0   0   0   0   0 
